s td 15 56 70
b 1 1 2 3 4 5 7 8 9 10 11 12 13 14 15 16 18 19 20 21 22 23 24 25 26 27 29 30 33 35 36 37 38 40 41 42 43 44 45 46 47 48 50 51 52 54 55 58 59 60 61 62 65 66 67 69 70
b 2 2 3 4 5 6 7 9 10 11 12 15 18 19 20 22 24 25 27 33 37 41 42 43 45 46 47 48 50 51 52 54 55 58 62 66 67 70
b 3 1 2 3 4 5 7 8 9 10 11 12 13 14 15 16 17 18 19 20 21 22 23 24 25 26 27 29 30 33 35 36 37 38 40 41 42 43 44 45 46 48 50 51 52 54 55 58 59 60 61 62 65 66 67 69 70
b 4 1 2 3 4 5 7 8 10 11 12 13 14 15 16 17 18 19 20 21 22 23 24 25 26 27 29 30 31 33 35 36 37 38 40 41 42 43 44 46 48 50 51 52 54 55 58 59 60 61 62 65 66 67 69 70
b 5 1 2 3 4 5 7 8 10 11 12 13 14 15 16 17 18 20 21 22 23 24 25 26 27 29 30 31 33 35 36 37 38 40 41 42 43 44 46 48 50 51 52 54 55 58 59 60 61 62 63 65 66 69 70
b 6 2 3 4 5 7 8 10 11 12 14 15 16 17 18 20 21 23 24 25 29 30 31 33 35 36 38 40 41 42 43 44 46 48 50 52 54 55 58 59 60 61 62 63 64 65 66 69
b 7 2 3 5 7 8 11 12 14 16 18 20 21 29 33 35 36 38 41 42 46 48 52 54 56 60 61 63 64 65
b 8 1 2 3 4 5 7 8 9 10 12 13 14 15 16 18 19 20 21 22 23 24 25 26 27 28 29 30 33 35 36 37 38 40 41 42 43 44 45 46 47 48 50 51 52 54 55 58 59 60 61 62 65 66 67 69 70
b 9 1 2 3 4 5 7 8 9 10 12 13 14 15 16 18 19 20 22 23 24 25 26 27 28 29 30 33 34 35 36 37 38 40 41 42 43 44 45 46 47 48 50 51 52 54 55 58 59 60 61 62 65 66 69 70
b 10 1 2 3 4 5 7 8 9 10 12 13 14 15 16 19 22 23 24 25 26 27 28 29 30 32 33 34 35 36 37 38 40 41 42 43 44 45 46 47 48 50 51 52 54 55 58 59 60 61 62 65 66 69 70
b 11 2 3 4 5 7 9 10 12 13 14 15 16 19 22 23 24 25 26 27 28 29 30 32 33 35 36 37 38 40 41 42 43 44 45 46 47 49 50 51 52 55 58 59 60 61 62 65 66 69 70
b 12 2 3 5 9 10 14 16 22 23 25 27 30 35 37 38 40 41 42 46 47 49 51 53 55 59 61 62 66 69 70
b 13 2 3 5 7 8 9 10 12 14 18 21 23 24 25 28 29 30 35 37 38 43 54 55 57 58 60 61 62 66 67
b 14 2 7 8 9 12 14 15 16 20 21 24 27 29 30 38 39 44 46 48 50 51 55 58 60 65 66 67 69
b 15 5 7 8 10 11 12 15 18 19 22 23 24 25 26 30 38 45 47 52 55 59 60 61 62 65 66 67 68 69
1 2
1 3
1 8
1 14
1 15
3 4
4 5
5 6
6 7
8 9
8 13
9 10
10 11
11 12
